Route #1: 1 1 16 6 20 5 17 9 13 21 7 2 1 
Route #2: 1 4 11 15 12 10 3 19 18 8 14 1 

Cost 235.898
Time 0.1043


 * Another infos *

 Iterations: 22 Time: 0.1043 sec - 0.0017 min - 0.0000 horas
0.0000 h 0.0017 min
Problem dimension: 22
